144
100000
71219
25964
13093
55
21302
20508
72895
32180
20348
73097
37463
26903
51535
10082
27241
22930
35103
9731
27390
10656
28781
42476
12328
46305
4657
20984
56777
1989
23768
43171
23378
45627
11870
926
61749
26394
19659
24264
3488
66008
15130
330
32599
1137
53307
19859
12486
124
72696
17477
63642
28137
35377
69048
30874
7446
36595
6134
39434
27304
36153
6159
9956
44915
46780
8324
54043
66332
38336
35443
34658
32862
20923
52823
64379
54392
19989
16225
5550
53695
3661
58215
49424
2092
26650
35678
66058
49927
9459
47177
50722
61550
34172
15557
13035
992
55085
26899
12293
14873
49085
42432
54120
35166
39696
3058
21447
3176
43970
12922
36760
18459
49336
4070
329
41066
2548
51596
56358
19537
39795
73877
30610
61965
23514
15805
44343
21810
55653
41456
23227
43223
41727
33992
1976
43836
2167
58113
4385
45880
48110
20833
2857
56829
